--- Job demowoaz_LiST_4_29_2020.gms Start 06/01/20 14:41:01 30.1.0 re01a340 WEX-WEI x86 64bit/MS Windows
--- GAMS Parameters defined
    Input Z:\home\lordflaron\Documents\minimod\Optimization Work\demewoz_lives_saved\data_files\justin_data\demowoaz_LiST_4_29_2020.gms
    PageSize 0
    ScrDir Z:\home\lordflaron\Documents\minimod\Optimization Work\demewoz_lives_saved\data_files\justin_data\225g\
    SysDir C:\GAMS\win64\30.1\
    LogOption 3
    ErrMsg 1
    ErrorLog 99
    IDE 1
    LstTitleLeftAligned 1
GAMS 30.1.0   Copyright (C) 1987-2020 GAMS Development. All rights reserved
Licensee: Small MUD - 5 User License                     G190305:1227AO-WIN
          University of California, Davis, Agricultural and Resource DC9668
--- Starting compilation
--- demowoaz_LiST_4_29_2020.gms(40) 3 Mb
--- GDXin=Z:\home\lordflaron\Documents\minimod\Optimization Work\demewoz_lives_saved\data_files\justin_data\Cameroon_deathsaverted.gdx
--- demowoaz_LiST_4_29_2020.gms(47) 3 Mb
--- GDXin=Z:\home\lordflaron\Documents\minimod\Optimization Work\demewoz_lives_saved\data_files\justin_data\Cameroon_deathsavertedhigh.gdx
--- demowoaz_LiST_4_29_2020.gms(54) 3 Mb
--- GDXin=Z:\home\lordflaron\Documents\minimod\Optimization Work\demewoz_lives_saved\data_files\justin_data\Cameroon_deathsavertedcost.gdx
--- demowoaz_LiST_4_29_2020.gms(61) 3 Mb
--- GDXin=Z:\home\lordflaron\Documents\minimod\Optimization Work\demewoz_lives_saved\data_files\justin_data\Cameroon_folate.gdx
--- demowoaz_LiST_4_29_2020.gms(448) 3 Mb
--- Starting execution: elapsed 0:00:00.028
--- demowoaz_LiST_4_29_2020.gms(348) 4 Mb
--- Generating MINLP model nutrition
--- demowoaz_LiST_4_29_2020.gms(349) 8 Mb
---   3,333 rows  4,952 columns  11,505 non-zeroes
---   0 nl-code  0 nl-non-zeroes
---   1,650 discrete-columns
--- demowoaz_LiST_4_29_2020.gms(349) 6 Mb
--- Executing BONMIN: elapsed 0:00:00.089
COIN-OR Bonmin   30.1.0 re01a340 Released Jan 10, 2020 WEI x86 64bit/MS Window
COIN-OR Bonmin (Bonmin Library 1.8)
written by P. Bonami.
******************************************************************************
This program contains Ipopt, a library for large-scale nonlinear optimization.
 Ipopt is released as open source code under the Eclipse Public License (EPL).
         For more information visit http://projects.coin-or.org/Ipopt
******************************************************************************
This is Ipopt version 3.12, running with linear solver mumps.
Number of nonzeros in equality constraint Jacobian...:     8203
Number of nonzeros in inequality constraint Jacobian.:     1651
Number of nonzeros in Lagrangian Hessian.............:        0
Total number of variables............................:     4951
                     variables with only lower bounds:        0
                variables with lower and upper bounds:     1650
                     variables with only upper bounds:        0
Total number of equality constraints.................:     3301
Total number of inequality constraints...............:       31
        inequality constraints with only lower bounds:        1
   inequality constraints with lower and upper bounds:        0
        inequality constraints with only upper bounds:       30
iter    objective    inf_pr   inf_du lg(mu)  ||d||  lg(rg) alpha_du alpha_pr  ls
   0  0.0000000e+00 3.18e+04 1.00e+00   0.0 0.00e+00    -  0.00e+00 0.00e+00   0
  11 -1.0706288e+07 3.18e+04 2.93e+01  -0.2 5.38e+09    -  1.08e-05 5.27e-06f  1
  24 -1.0935906e+07 3.18e+04 2.28e+04   0.2 1.03e+07    -  4.79e-03 4.74e-04h  1
  36 -8.7187479e+06 2.80e+04 1.64e+06   1.4 4.32e+06    -  1.58e-04 1.85e-02h  1
  47 -7.2680278e+06 2.55e+04 1.61e+06   1.5 1.12e+06    -  2.13e-03 2.67e-04h  1
  60 -5.9361143e+06 2.34e+04 1.50e+06   1.5 3.83e+06    -  5.95e-04 3.82e-03h  1
  72 -3.8498424e+06 2.06e+04 1.31e+06   1.4 1.00e+07    -  1.81e-03 3.18e-02h  1
  81 -3.0007287e+06 1.95e+04 1.23e+06   1.4 1.90e+07    -  2.55e-03 1.41e-04h  1
  90 -1.7710499e+06 1.79e+04 1.14e+06   1.4 8.06e+06    -  1.43e-04 3.71e-03h  1
  98 -9.4525701e+07 6.50e+05 1.07e+00  -0.4 1.57e+11    -  4.20e-07 1.81e-06f  1
iter    objective    inf_pr   inf_du lg(mu)  ||d||  lg(rg) alpha_du alpha_pr  ls
 109 -1.7191286e+08 6.49e+05 1.88e+03  -0.3 3.41e+08    -  9.10e-04 4.68e-04f  1
 117 -1.7101274e+08 6.44e+05 1.19e+04  -0.1 1.24e+08    -  2.37e-03 8.05e-04h  1
 126r-1.7003790e+08 6.39e+05 1.01e+03   1.5 5.52e+04    -  4.31e-04 8.41e-04f  1
 137r-1.6993679e+08 6.39e+05 1.90e+03   1.5 1.99e+04    -  4.50e-03 3.27e-03f  1
 147r-1.6971989e+08 6.39e+05 9.39e+03   1.4 4.38e+05    -  1.22e-04 2.44e-02f  1
 155r-1.6867421e+08 6.37e+05 7.31e+04   1.6 1.00e+05    -  4.78e-01 1.66e-01f  1
 166r-1.6525211e+08 6.33e+05 3.05e+04   1.2 1.35e+04    -  1.00e+00 2.54e-01f  1
 177r-1.4750787e+08 6.17e+05 2.93e+04  -0.2 1.08e+04    -  1.00e+00 1.74e-01f  1
 189r-1.2068128e+08 5.93e+05 3.16e+04  -0.6 2.30e+04    -  1.00e+00 8.40e-02f  1
 200r-9.1132154e+07 5.65e+05 1.61e+04  -1.1 1.65e+04    -  1.00e+00 1.72e-01f  1
iter    objective    inf_pr   inf_du lg(mu)  ||d||  lg(rg) alpha_du alpha_pr  ls
 209r-6.9981258e+07 5.45e+05 1.65e+04  -1.1 5.95e+04    -  2.64e-01 3.76e-02f  1
 218r-5.0839701e+07 5.25e+05 1.09e+04  -1.5 1.43e+04    -  1.00e+00 1.19e-01f  1
 226r-3.4854737e+07 5.09e+05 8.26e+03  -1.6 1.17e+04    -  1.00e+00 1.29e-01f  1
 238r-1.2981640e+07 4.85e+05 5.53e+03  -1.8 9.38e+03    -  1.00e+00 1.74e-01f  1
 246r-4.7789730e+05 4.71e+05 7.77e+03  -1.7 1.41e+04    -  1.00e+00 8.99e-02f  1
 256r 1.4640981e+07 4.53e+05 6.92e+03  -1.9 1.40e+04    -  1.00e+00 9.97e-02f  1
 265r 2.7825692e+07 4.36e+05 5.69e+03  -1.7 1.21e+05    -  6.63e-02 1.70e-02f  1
 275r 3.8854980e+07 4.20e+05 1.76e+03  -2.2 1.08e+06    -  1.63e-02 1.80e-03f  1
 285r 5.2690344e+07 3.99e+05 3.10e+03  -2.4 6.05e+03    -  1.00e+00 2.55e-01f  1
 292r 5.6145263e+07 3.93e+05 9.44e+03  -1.8 6.90e+04    -  1.05e-01 1.22e-02f  1
iter    objective    inf_pr   inf_du lg(mu)  ||d||  lg(rg) alpha_du alpha_pr  ls
 297r 5.6164268e+07 3.93e+05 2.34e+02  -1.8 7.17e+02    -  7.52e-01 1.49e-08f 27
 303r 5.6164268e+07 3.93e+05 2.33e+02  -1.8 9.57e+02    -  6.70e-01 9.09e-13h 41
 311r 5.9980691e+07 3.86e+05 4.29e+03  -2.7 3.94e+05    -  8.46e-03 6.22e-03f  1
 322r 7.7426620e+07 3.54e+05 2.22e+04  -2.0 6.36e+04    -  4.73e-01 8.70e-02f  1
 329r 7.9569115e+07 3.50e+05 1.49e+04  -1.8 3.59e+04    -  5.30e-02 3.16e-13f 40
 335r 7.9533200e+07 3.50e+05 4.78e+03  -2.0 2.48e+03    -  5.95e-01 1.16e-10f 34
 339r 7.9533200e+07 3.50e+05 2.32e+03  -2.0 2.48e+03    -  5.11e-02 2.27e-13f 43
 344r 7.9533200e+07 3.50e+05 1.96e+03  -2.0 2.49e+03    -  3.40e-01 4.44e-16f 52
 354r 8.6985871e+07 3.35e+05 8.69e+03  -2.8 2.82e+05    -  1.95e-03 1.30e-02f  1
 364r 9.8458312e+07 3.09e+05 9.85e+03  -2.3 1.22e+05    -  1.58e-01 1.37e-02f  1
iter    objective    inf_pr   inf_du lg(mu)  ||d||  lg(rg) alpha_du alpha_pr  ls
 373r 1.0410332e+08 2.94e+05 1.22e+04  -2.2 5.14e+04    -  6.29e-01 3.87e-02f  1
 381r 1.0696527e+08 2.86e+05 8.02e+03  -2.2 3.66e+04    -  8.71e-02 6.39e-02h  1
 387r 1.1153330e+08 2.72e+05 2.91e+03  -2.7 1.29e+05    -  6.23e-03 1.86e-03h  4
 393r 1.1279113e+08 2.69e+05 7.85e+03  -2.4 7.65e+04    -  2.69e-01 1.03e-02f  1
 398r 1.1431092e+08 2.64e+05 5.76e+03  -2.1 7.20e+03    -  4.95e-02 5.07e-11f 33
 403r 1.1431092e+08 2.64e+05 3.80e+03  -2.2 1.06e+04    -  4.51e-02 2.95e-15f 48
 407r 1.1431092e+08 2.64e+05 3.19e+03  -2.2 1.06e+04    -  7.74e-03 2.35e-16f 52
 412r 1.1431092e+08 2.64e+05 3.06e+03  -2.2 3.06e+03    -  5.53e-03 2.43e-16f 51
 415r 1.1431092e+08 2.64e+05 2.86e+03  -2.2 1.07e+04    -  1.95e-02 2.50e-16f 52
 419r 1.1431092e+08 2.64e+05 2.72e+03  -2.2 1.07e+04    -  4.41e-03 2.64e-16f 52
iter    objective    inf_pr   inf_du lg(mu)  ||d||  lg(rg) alpha_du alpha_pr  ls
 425r 1.1431092e+08 2.64e+05 2.61e+03  -2.2 6.15e+03    -  4.68e-03 2.70e-16f 51
 429r 1.1431092e+08 2.64e+05 2.49e+03  -2.2 2.51e+04    -  4.50e-03 1.39e-16f 53
 432r 1.1431092e+08 2.64e+05 2.39e+03  -2.2 1.07e+04    -  7.53e-03 8.83e-18f 57
 437r 1.1090948e+08 2.75e+05 3.37e+03  -2.2 4.50e+03    -  6.18e-02 1.00e+00w  1
 441r 1.1431092e+08 2.64e+05 2.22e+03  -2.2 1.07e+04    -  7.47e-03 9.17e-18f 57
 444r 1.1431092e+08 2.64e+05 2.14e+03  -2.2 2.54e+04    -  4.49e-03 9.34e-18f 57
 449r 1.1091754e+08 2.75e+05 3.40e+03  -2.2 7.62e+03    -  2.64e-01 1.00e+00w  1
 453r 1.1431092e+08 2.64e+05 1.97e+03  -2.2 2.54e+04    -  4.49e-03 9.66e-18f 57
 458r 1.1431092e+08 2.64e+05 1.83e+03  -2.2 1.07e+04    -  7.47e-03 9.91e-18f 57
 461r 1.1184336e+08 2.72e+05 3.64e+03  -2.2 2.54e+04    -  4.49e-03 7.26e-01w  1
iter    objective    inf_pr   inf_du lg(mu)  ||d||  lg(rg) alpha_du alpha_pr  ls
 465r 1.1431092e+08 2.64e+05 1.72e+03  -2.2 1.07e+04    -  7.47e-03 1.01e-17f 57
 470r 1.1431092e+08 2.64e+05 1.60e+03  -2.2 2.54e+04    -  4.49e-03 1.04e-17f 57
 477r 1.1431092e+08 2.64e+05 1.50e+03  -2.2 2.16e+02    -  4.49e-03 1.06e-17f 56
 481r 1.1431092e+08 2.64e+05 1.41e+03  -2.2 2.54e+04    -  4.49e-03 1.07e-17f 57
 485r 1.1431092e+08 2.64e+05 1.31e+03  -2.2 2.54e+04    -  4.49e-03 1.09e-17f 57
 492r 1.1431092e+08 2.64e+05 1.22e+03  -2.2 2.54e+04    -  4.49e-03 1.11e-17f 57
 496r 1.1431092e+08 2.64e+05 1.13e+03  -2.2 2.54e+04    -  4.49e-03 1.13e-17f 57
 501r 1.1090862e+08 2.75e+05 3.36e+03  -2.2 1.11e+04    -  7.42e-02 1.00e+00w  1
 507r 1.1431092e+08 2.64e+05 9.55e+02  -2.2 2.54e+04    -  4.49e-03 1.16e-17f 57
 511r 1.1431092e+08 2.64e+05 8.71e+02  -2.2 2.54e+04    -  4.49e-03 1.18e-17f 57
iter    objective    inf_pr   inf_du lg(mu)  ||d||  lg(rg) alpha_du alpha_pr  ls
 518r 1.1431092e+08 2.64e+05 9.05e+02  -2.2 2.54e+04    -  3.60e-03 1.20e-17f 57
 523r 1.1431092e+08 2.64e+05 8.83e+02  -2.2 1.07e+04    -  5.81e-03 1.22e-17f 57
 529r 1.1431092e+08 2.64e+05 9.05e+02  -2.2 2.49e+03    -  4.53e-03 1.23e-17f 56
 534r 1.1431092e+08 2.64e+05 8.97e+02  -2.2 1.41e+04    -  4.49e-03 1.27e-17f 57
 538r 1.1431092e+08 2.64e+05 8.80e+02  -2.2 2.01e+04    -  7.34e-03 1.30e-17f 57
 545r 1.1431092e+08 2.64e+05 8.92e+02  -2.2 3.01e+04    -  5.94e-03 1.31e-17f 57
 548r 1.1431092e+08 2.64e+05 8.94e+02  -2.2 3.13e+04    -  5.20e-03 1.32e-17f 57
 551r 1.1431092e+08 2.64e+05 8.94e+02  -2.2 3.14e+04    -  5.63e-03 1.33e-17f 57
 558r 1.1431092e+08 2.64e+05 9.09e+02  -2.2 1.08e+04    -  3.04e-03 1.35e-17f 57
 563r 1.1431092e+08 2.64e+05 8.78e+02  -2.2 2.90e+04    -  5.16e-03 1.38e-17f 57
iter    objective    inf_pr   inf_du lg(mu)  ||d||  lg(rg) alpha_du alpha_pr  ls
 570r 1.1431092e+08 2.64e+05 8.84e+02  -2.2 5.06e+04    -  2.15e-03 1.39e-17f 57
 575r 1.1431092e+08 2.64e+05 8.90e+02  -2.2 2.24e+04    -  4.76e-03 1.39e-17f 57
 581r 1.1431092e+08 2.64e+05 9.11e+02  -2.2 4.82e+03    -  3.16e-03 1.39e-17f 56
 585r 1.1431092e+08 2.64e+05 9.12e+02  -2.2 1.06e+04    -  9.67e-03 1.39e-17f 57
 589r 1.1431092e+08 2.64e+05 9.12e+02  -2.2 1.06e+04    -  1.73e-02 1.39e-17f 57
 596r 1.1431092e+08 2.64e+05 9.22e+02  -2.2 3.93e+04    -  1.51e-03 1.39e-17f 57
 600r 1.1431092e+08 2.64e+05 9.49e+02  -2.2 1.07e+04    -  2.32e-03 1.39e-17f 57
 607r 1.1431092e+08 2.64e+05 1.03e+03  -2.2 1.75e+03    -  1.44e-02 1.39e-17f 56
 611r 1.1431092e+08 2.64e+05 1.07e+03  -2.2 1.07e+04    -  6.36e-03 1.39e-17f 57
 614r 1.1431092e+08 2.64e+05 1.10e+03  -2.2 1.08e+04    -  7.95e-03 1.39e-17f 57
iter    objective    inf_pr   inf_du lg(mu)  ||d||  lg(rg) alpha_du alpha_pr  ls
 620r 1.1431092e+08 2.64e+05 1.12e+03  -2.2 9.27e+02    -  4.51e-03 1.39e-17f 56
 625r 1.1431092e+08 2.64e+05 1.19e+03  -2.2 2.87e+04    -  3.70e-02 1.39e-17f 57
 631r 1.1090146e+08 2.75e+05 2.01e+03  -2.2 3.74e+04    -  4.35e-02 1.00e+00w  1
 636r 1.1431092e+08 2.64e+05 1.27e+03  -2.2 1.07e+04    -  1.58e-02 1.39e-17f 57
 641r 1.1431092e+08 2.64e+05 1.30e+03  -2.2 6.94e+04    -  6.80e-03 1.39e-17f 57
 647r 1.1431092e+08 2.64e+05 1.34e+03  -2.2 1.89e+04    -  5.53e-03 1.39e-17f 57
 650r 1.1431092e+08 2.64e+05 1.36e+03  -2.2 1.07e+04    -  8.68e-03 1.39e-17f 57
 653r 1.1431092e+08 2.64e+05 1.38e+03  -2.2 2.62e+04    -  4.61e-03 1.39e-17f 57
 660r 1.1431092e+08 2.64e+05 1.41e+03  -2.2 6.59e+04    -  3.36e-03 1.39e-17f 57
 665r 1.1431092e+08 2.64e+05 1.47e+03  -2.2 6.26e+04    -  9.96e-03 1.39e-17f 57
iter    objective    inf_pr   inf_du lg(mu)  ||d||  lg(rg) alpha_du alpha_pr  ls
 672r 1.1431092e+08 2.64e+05 1.51e+03  -2.2 1.65e+03    -  9.71e-03 1.39e-17f 56
 676r 1.1431092e+08 2.64e+05 1.54e+03  -2.2 6.62e+04    -  7.38e-03 1.39e-17f 57
 680r 1.1431092e+08 2.64e+05 1.56e+03  -2.2 1.07e+04    -  7.43e-03 1.39e-17f 57
 686r 1.1431092e+08 2.64e+05 1.58e+03  -2.2 2.54e+04    -  4.31e-03 1.39e-17f 57
 691r 1.1431092e+08 2.64e+05 1.61e+03  -2.2 1.07e+04    -  7.40e-03 1.39e-17f 57
 697r 1.1089250e+08 2.75e+05 4.95e+02  -2.2 2.69e+03    -  5.34e-01 1.00e+00w  1
 702r 1.1431092e+08 2.64e+05 1.67e+03  -2.2 2.75e+04    -  2.01e-02 1.39e-17f 57
 707r 1.1431092e+08 2.64e+05 1.71e+03  -2.2 1.07e+04    -  1.52e-03 1.39e-17f 57
 713r 1.1431092e+08 2.64e+05 1.73e+03  -2.2 1.08e+04    -  9.48e-03 1.39e-17f 57
 718r 1.1431092e+08 2.64e+05 1.75e+03  -2.2 2.51e+04    -  4.50e-03 1.39e-17f 57
iter    objective    inf_pr   inf_du lg(mu)  ||d||  lg(rg) alpha_du alpha_pr  ls
 725r 1.1431092e+08 2.64e+05 1.77e+03  -2.2 2.76e+04    -  4.65e-03 1.39e-17f 57
 730r 1.1431092e+08 2.64e+05 1.82e+03  -2.2 4.04e+04    -  4.55e-03 1.39e-17f 57
 737r 1.1431092e+08 2.64e+05 1.86e+03  -2.2 1.48e+03    -  6.89e-03 1.39e-17f 56
 742r 1.1431092e+08 2.64e+05 1.88e+03  -2.2 2.37e+04    -  4.61e-03 1.39e-17f 57
 749r 1.1089217e+08 2.75e+05 4.67e+02  -2.2 3.48e+03    -  4.07e-01 1.00e+00w  1
 754r 1.1431092e+08 2.64e+05 1.92e+03  -2.2 1.07e+04    -  7.33e-03 1.39e-17f 57
 759r 1.1431092e+08 2.64e+05 1.95e+03  -2.2 3.47e+04    -  4.52e-03 1.39e-17f 57
 766r 1.1431092e+08 2.64e+05 1.97e+03  -2.2 3.17e+04    -  1.11e-02 1.39e-17f 57
 771r 1.1431092e+08 2.64e+05 2.00e+03  -2.2 1.08e+04    -  6.31e-03 1.39e-17f 57
 778r 1.1431092e+08 2.64e+05 2.02e+03  -2.2 1.07e+04    -  7.25e-03 1.39e-17f 57
iter    objective    inf_pr   inf_du lg(mu)  ||d||  lg(rg) alpha_du alpha_pr  ls
 783r 1.1431092e+08 2.64e+05 2.04e+03  -2.2 2.54e+04    -  4.49e-03 3.39e-21h 69
 790r 1.1431092e+08 2.64e+05 2.05e+03  -2.2 2.54e+04    -  4.49e-03 3.39e-21h 69
 794r 1.1431092e+08 2.64e+05 2.07e+03  -2.2 2.54e+04    -  4.49e-03 3.39e-21h 69
 798r 1.1431092e+08 2.64e+05 2.08e+03  -2.2 5.83e+04    -  2.40e-03 2.71e-20h 66
 805r 1.1429971e+08 2.64e+05 2.09e+03  -2.2 2.76e+04    -  8.40e-03 7.28e-12f 38
 810r 1.1429971e+08 2.64e+05 2.15e+03  -2.2 1.06e+04    -  8.64e-03 1.42e-14f 47
 817r 1.1429971e+08 2.64e+05 2.18e+03  -2.2 1.71e+04    -  1.55e-02 1.11e-16f 54
 822r 1.1429971e+08 2.64e+05 2.21e+03  -2.2 1.06e+04    -  1.15e-02 1.11e-16f 54
 827r 1.1089085e+08 2.75e+05 4.54e+02  -2.2 3.94e+03    -  6.14e-02 1.00e+00w  1
 833r 1.1429971e+08 2.64e+05 2.25e+03  -2.2 1.06e+04    -  2.38e-02 1.11e-16f 54
iter    objective    inf_pr   inf_du lg(mu)  ||d||  lg(rg) alpha_du alpha_pr  ls
 838r 1.1429971e+08 2.64e+05 2.29e+03  -2.2 1.06e+04    -  2.85e-02 5.55e-17f 55
 845r 1.1429971e+08 2.64e+05 2.31e+03  -2.2 2.00e+04    -  1.14e-02 5.55e-17f 55
 849r 1.1429971e+08 2.64e+05 2.32e+03  -2.2 2.21e+04    -  9.01e-03 5.55e-17f 55
 859r 1.1222516e+08 2.70e+05 4.73e+03  -3.3 9.18e+05    -  4.10e-03 2.40e-03f  1
 872r 1.2008673e+08 2.44e+05 2.21e+04  -2.8 4.83e+05    -  2.54e-02 3.04e-03f  1
 880r 1.2475051e+08 2.27e+05 1.32e+04  -1.8 2.55e+05    -  4.48e-03 3.91e-14f 41
 885r 1.2475051e+08 2.27e+05 1.16e+04  -1.4 1.52e+05    -  1.54e-03 4.06e-17f 52
 889r 1.2475051e+08 2.27e+05 1.02e+04  -1.5 1.34e+05    -  1.94e-03 3.22e-18f 56
 893r 1.2475051e+08 2.27e+05 9.68e+03  -1.5 1.29e+05    -  2.78e-03 3.48e-18f 56
 897r 1.2475051e+08 2.27e+05 9.05e+03  -1.5 1.22e+05    -  7.49e-04 3.97e-18f 56
iter    objective    inf_pr   inf_du lg(mu)  ||d||  lg(rg) alpha_du alpha_pr  ls
 901r 1.2475051e+08 2.27e+05 8.88e+03  -1.5 1.20e+05    -  1.05e-03 4.08e-18f 56
 905r 1.2475051e+08 2.27e+05 8.02e+03  -1.5 1.20e+05    -  9.92e-04 4.84e-18f 56
 910r 1.2475051e+08 2.27e+05 7.86e+03  -2.0 2.53e+05    -  1.29e-04 1.79e-18f 56
 914r 1.2475051e+08 2.27e+05 7.07e+03  -2.1 2.53e+05    -  1.08e-04 1.91e-18f 56
 919r 1.2475051e+08 2.27e+05 6.94e+03  -1.5 1.04e+05    -  3.68e-04 6.13e-18f 56
 924r 1.2475051e+08 2.27e+05 6.84e+03  -2.1 2.49e+05    -  4.86e-05 1.99e-18f 56
 929r 1.2475051e+08 2.27e+05 6.38e+03  -1.5 9.89e+04    -  5.84e-04 6.95e-18f 56
 933r 1.2475051e+08 2.27e+05 6.34e+03  -1.5 9.45e+04    -  2.39e-04 7.03e-18f 56
 938r 1.2475051e+08 2.27e+05 5.55e+03  -2.1 2.36e+05    -  1.24e-04 2.40e-18f 56
 942r 1.2475051e+08 2.27e+05 5.44e+03  -2.1 2.34e+05    -  4.53e-05 2.45e-18f 56
iter    objective    inf_pr   inf_du lg(mu)  ||d||  lg(rg) alpha_du alpha_pr  ls
 946r 1.2475051e+08 2.27e+05 5.24e+03  -2.2 2.33e+05    -  7.79e-05 2.52e-18f 56
 951r 1.2475051e+08 2.27e+05 5.19e+03  -1.6 7.25e+04    -  3.50e-04 9.41e-18f 56
 956r 1.2475051e+08 2.27e+05 5.01e+03  -2.2 2.22e+05    -  7.85e-05 2.76e-18f 56
 961r 1.2475051e+08 2.27e+05 4.94e+03  -1.6 6.64e+04    -  1.75e-03 1.00e-17f 56
 965r 1.2475051e+08 2.27e+05 4.85e+03  -1.6 6.84e+04    -  4.99e-03 1.02e-17f 56
 969r 1.2475051e+08 2.27e+05 4.82e+03  -1.7 6.37e+04    -  4.48e-04 1.04e-17f 56
 973r 1.2475051e+08 2.27e+05 4.73e+03  -1.7 5.60e+04    -  7.69e-04 1.07e-17f 56
 977r 1.2475051e+08 2.27e+05 4.67e+03  -1.7 5.99e+04    -  3.05e-03 1.08e-17f 56
 981r 1.2475051e+08 2.27e+05 4.27e+03  -1.7 5.92e+04    -  3.34e-02 1.10e-17f 56
 985r 1.2475051e+08 2.27e+05 4.23e+03  -1.8 4.96e+04    -  1.00e-03 1.25e-17f 56
iter    objective    inf_pr   inf_du lg(mu)  ||d||  lg(rg) alpha_du alpha_pr  ls
 989r 1.2475051e+08 2.27e+05 4.18e+03  -1.8 4.83e+04    -  3.38e-03 1.26e-17f 56
 994r 1.2475051e+08 2.27e+05 4.06e+03  -2.2 1.68e+05    -  1.99e-04 4.39e-18f 56
 998r 1.2475051e+08 2.27e+05 4.04e+03  -2.2 1.55e+05    -  9.77e-05 4.83e-18f 56
1002r 1.2475051e+08 2.27e+05 3.60e+03  -2.2 6.25e+04    -  4.72e-04 1.08e-17f 56
1006r 1.2475051e+08 2.27e+05 3.54e+03  -2.2 4.54e+04    -  3.81e-04 1.29e-17f 56
1010r 1.2475051e+08 2.27e+05 3.34e+03  -2.3 4.06e+04    -  1.08e-03 1.41e-17f 56
1016r 1.2474780e+08 2.27e+05 9.46e+03  -2.3 1.23e+04    -  1.37e-02 6.37e-14f 44
1021r 1.2474780e+08 2.27e+05 8.99e+03  -2.3 1.31e+04    -  1.27e-02 5.22e-16f 51
1028r 1.2474780e+08 2.27e+05 8.88e+03  -2.3 1.31e+04    -  3.40e-03 2.66e-16f 52
1033r 1.2474780e+08 2.27e+05 8.78e+03  -2.3 1.55e+04    -  3.28e-03 6.70e-17f 54
iter    objective    inf_pr   inf_du lg(mu)  ||d||  lg(rg) alpha_du alpha_pr  ls
1040r 1.2474780e+08 2.27e+05 8.71e+03  -2.3 1.55e+04    -  3.28e-03 3.38e-17f 55
1044r 1.2474780e+08 2.27e+05 8.64e+03  -2.3 1.55e+04    -  3.28e-03 3.40e-17f 55
1049r 1.2286117e+08 2.34e+05 6.57e+03  -2.3 1.32e+04    -  3.10e-03 6.17e-01w  1
1056r 1.2474780e+08 2.27e+05 8.49e+03  -2.3 1.32e+04    -  3.10e-03 3.45e-17f 55
1061r 1.2474780e+08 2.27e+05 8.41e+03  -2.3 1.55e+04    -  3.28e-03 3.48e-17f 55
1068r 1.2474780e+08 2.27e+05 8.34e+03  -2.3 1.55e+04    -  3.28e-03 3.50e-17f 55
1073r 1.2474780e+08 2.27e+05 8.26e+03  -2.3 1.32e+04    -  3.10e-03 3.53e-17f 55
1080r 1.2474780e+08 2.27e+05 8.20e+03  -2.3 1.32e+04    -  3.10e-03 3.55e-17f 55
1085r 1.2474780e+08 2.27e+05 8.12e+03  -2.3 1.55e+04    -  3.28e-03 3.58e-17f 55
1092r 1.2474780e+08 2.27e+05 8.05e+03  -2.3 1.55e+04    -  3.28e-03 3.60e-17f 55
iter    objective    inf_pr   inf_du lg(mu)  ||d||  lg(rg) alpha_du alpha_pr  ls
1097r 1.2474780e+08 2.27e+05 7.98e+03  -2.3 1.32e+04    -  3.10e-03 3.63e-17f 55
1104r 1.2474780e+08 2.27e+05 7.92e+03  -2.3 9.72e+02    -  3.10e-03 3.65e-17f 54
1108r 1.2474780e+08 2.27e+05 7.86e+03  -2.3 1.32e+04    -  3.10e-03 3.67e-17f 55
1113r 1.2474780e+08 2.27e+05 7.78e+03  -2.3 1.55e+04    -  3.28e-03 7.21e-20h 64
1119r 1.2474780e+08 2.27e+05 7.74e+03  -2.3 1.32e+04    -  3.10e-03 7.24e-20h 64
1124r 1.2474780e+08 2.27e+05 7.67e+03  -2.3 1.55e+04    -  3.28e-03 1.82e-20h 66
1131r 1.2474780e+08 2.27e+05 7.62e+03  -2.3 1.55e+04    -  2.98e-03 1.83e-20h 66
1135r 1.2474780e+08 2.27e+05 7.56e+03  -2.3 1.55e+04    -  2.81e-03 1.84e-20h 66
1141r 1.2207135e+08 2.37e+05 3.55e+03  -2.3 7.43e+03    -  2.70e-01 5.71e-01w  1
1146r 1.2474780e+08 2.27e+05 7.46e+03  -2.3 3.67e+04    -  3.13e-03 1.86e-20h 66
iter    objective    inf_pr   inf_du lg(mu)  ||d||  lg(rg) alpha_du alpha_pr  ls
1151r 1.2474780e+08 2.27e+05 7.39e+03  -2.3 1.32e+04    -  3.10e-03 7.49e-20h 64
1158r 1.2474780e+08 2.27e+05 7.34e+03  -2.3 1.32e+04    -  3.10e-03 7.52e-20h 64
1162r 1.2474780e+08 2.27e+05 7.29e+03  -2.3 1.77e+04    -  3.10e-03 7.56e-20h 64
1169r 1.2474780e+08 2.27e+05 7.24e+03  -2.3 8.19e+03    -  3.10e-03 7.60e-20h 63
1173r 1.2474780e+08 2.27e+05 7.18e+03  -2.3 1.32e+04    -  3.10e-03 7.63e-20h 64
1177r 1.2474780e+08 2.27e+05 7.13e+03  -2.3 1.33e+04    -  3.43e-03 7.67e-20h 64
1184r 1.2474780e+08 2.27e+05 7.08e+03  -2.3 1.32e+04    -  3.12e-03 7.71e-20h 64
1189r 1.2474780e+08 2.27e+05 7.02e+03  -2.3 1.55e+04    -  3.28e-03 1.94e-20h 66
1196r 1.2474780e+08 2.27e+05 6.97e+03  -2.3 1.58e+04    -  3.40e-03 1.95e-20h 66
1201r 1.2474780e+08 2.27e+05 6.92e+03  -2.3 1.32e+04    -  2.33e-03 7.83e-20h 64
iter    objective    inf_pr   inf_du lg(mu)  ||d||  lg(rg) alpha_du alpha_pr  ls
1208r 1.2474780e+08 2.27e+05 6.87e+03  -2.3 3.06e+02    -  3.09e-03 7.86e-20h 63
1213r 1.2474780e+08 2.27e+05 6.81e+03  -2.3 2.32e+04    -  3.28e-03 1.97e-20h 66
1218r 1.2248789e+08 2.36e+05 4.40e+03  -2.3 1.32e+04    -  3.07e-03 7.32e-01w  1
1224r 1.2474780e+08 2.27e+05 6.72e+03  -2.3 1.55e+04    -  3.28e-03 1.99e-20h 66
1228r 1.2474780e+08 2.27e+05 6.68e+03  -2.3 1.56e+04    -  3.07e-03 2.00e-20h 66
1235r 1.2474780e+08 2.27e+05 6.64e+03  -2.3 1.55e+04    -  3.27e-03 2.01e-20h 66
1240r 1.2474780e+08 2.27e+05 6.59e+03  -2.3 1.32e+04    -  3.10e-03 8.07e-20h 64
1246r 1.2163609e+08 2.39e+05 2.25e+03  -2.3 8.04e+03    -  3.94e-01 9.75e-01w  1
1251r 1.2474780e+08 2.27e+05 6.50e+03  -2.3 1.32e+04    -  3.16e-03 8.13e-20h 64
1255r 1.2474780e+08 2.27e+05 6.46e+03  -2.3 3.18e+04    -  3.10e-03 8.16e-20f 64
iter    objective    inf_pr   inf_du lg(mu)  ||d||  lg(rg) alpha_du alpha_pr  ls
1261r 1.2474780e+08 2.27e+05 6.43e+03  -2.3 1.55e+04    -  3.28e-03 2.05e-20h 66
1266r 1.2474780e+08 2.27e+05 6.38e+03  -2.3 1.32e+04    -  2.74e-03 8.22e-20h 64
1272r 1.2163652e+08 2.39e+05 2.25e+03  -2.3 4.22e+02    -  3.59e-01 6.63e-01w  1
1277r 1.2474780e+08 2.27e+05 6.31e+03  -2.3 1.51e+05    -  2.41e-03 8.28e-20f 64
1282r 1.2474780e+08 2.27e+05 6.12e+03  -2.3 1.39e+04    -  2.72e-03 1.68e-19f 63
1289r 1.2474780e+08 2.27e+05 6.08e+03  -2.3 1.56e+04    -  3.20e-03 2.11e-20h 66
1294r 1.2474780e+08 2.27e+05 6.04e+03  -2.3 1.32e+04    -  2.70e-03 8.46e-20f 64
1301r 1.2474780e+08 2.27e+05 6.00e+03  -2.3 1.35e+04    -  3.19e-03 8.47e-20f 64
1305r 1.2474780e+08 2.27e+05 5.97e+03  -2.3 1.32e+04    -  3.11e-03 8.47e-20f 64
1311r 1.2163646e+08 2.39e+05 2.21e+03  -2.3 1.62e+03    -  2.85e-01 6.29e-01w  1
iter    objective    inf_pr   inf_du lg(mu)  ||d||  lg(rg) alpha_du alpha_pr  ls
1315r 1.2474780e+08 2.27e+05 5.91e+03  -2.3 1.55e+04    -  2.28e-03 2.12e-20h 66
1320r 1.2474780e+08 2.27e+05 5.77e+03  -2.3 1.37e+04    -  2.22e-03 6.80e-19f 61
1327r 1.2474780e+08 2.27e+05 5.72e+03  -2.3 1.37e+04    -  3.18e-03 8.51e-20f 64
1331r 1.2474780e+08 2.27e+05 5.68e+03  -2.3 1.33e+04    -  2.93e-03 8.51e-20f 64
1334r 1.2474780e+08 2.27e+05 5.66e+03  -2.3 1.55e+04    -  3.27e-03 2.13e-20h 66
1340r 1.2474780e+08 2.27e+05 5.64e+03  -2.3 1.19e+05    -  2.99e-03 8.52e-20f 64
1344r 1.2474780e+08 2.27e+05 5.61e+03  -2.3 1.32e+04    -  3.08e-03 8.52e-20f 64
1350r 1.2163641e+08 2.39e+05 2.06e+03  -2.3 3.20e+03    -  1.95e-01 6.33e-01w  1
1354r 1.2474780e+08 2.27e+05 5.56e+03  -2.3 1.55e+04    -  3.28e-03 2.13e-20h 66
1358r 1.2474780e+08 2.27e+05 5.44e+03  -2.3 1.57e+04    -  4.11e-02 2.13e-20h 66
iter    objective    inf_pr   inf_du lg(mu)  ||d||  lg(rg) alpha_du alpha_pr  ls
1364r 1.2474780e+08 2.27e+05 5.41e+03  -2.3 6.81e+03    -  5.36e-03 6.84e-19f 60
1368r 1.2474780e+08 2.27e+05 5.37e+03  -2.3 1.54e+04    -  4.99e-03 2.14e-20h 66
1372r 1.2474780e+08 2.27e+05 5.34e+03  -2.3 1.33e+04    -  2.97e-03 8.57e-20f 64
1377r 1.2474780e+08 2.27e+05 5.33e+03  -2.3 5.71e+03    -  2.76e-03 8.57e-20f 63
1382r 1.2474780e+08 2.27e+05 5.30e+03  -2.3 3.66e+04    -  3.14e-03 2.14e-20h 66
1386r 1.2474780e+08 2.27e+05 5.27e+03  -2.3 1.58e+04    -  3.33e-03 2.15e-20h 66
1393r 1.2474780e+08 2.27e+05 5.25e+03  -2.3 3.71e+04    -  3.11e-03 2.15e-20h 66
1398r 1.2474780e+08 2.27e+05 5.21e+03  -2.3 3.58e+04    -  3.04e-03 8.59e-20f 64
1405r 1.2474780e+08 2.27e+05 5.17e+03  -2.3 1.31e+04    -  2.71e-03 1.72e-19f 63
1409r 1.2474780e+08 2.27e+05 5.14e+03  -2.3 1.55e+04    -  4.56e-03 2.15e-20h 66
iter    objective    inf_pr   inf_du lg(mu)  ||d||  lg(rg) alpha_du alpha_pr  ls
1415r 1.2162949e+08 2.39e+05 6.01e+02  -2.3 7.16e+03    -  8.61e-01 6.67e-01w  1
1420r 1.2474780e+08 2.27e+05 5.10e+03  -2.3 1.32e+04    -  3.00e-03 8.62e-20f 64
1425r 1.2474780e+08 2.27e+05 5.07e+03  -2.3 3.69e+04    -  3.12e-03 2.16e-20h 66
1432r 1.2474780e+08 2.27e+05 5.05e+03  -2.3 1.55e+04    -  3.25e-03 2.16e-20h 66
1436r 1.2474780e+08 2.27e+05 5.03e+03  -2.3 1.58e+04    -  3.02e-03 2.16e-20h 66
1442r 1.2474780e+08 2.27e+05 5.01e+03  -2.3 2.04e+03    -  2.86e-03 8.63e-20f 63
1446r 1.2474780e+08 2.27e+05 4.99e+03  -2.3 1.32e+04    -  2.98e-03 8.64e-20f 64
1451r 1.2474780e+08 2.27e+05 4.97e+03  -2.3 3.74e+04    -  3.19e-03 2.16e-20h 66
1458r 1.2474120e+08 2.27e+05 4.93e+03  -2.3 1.22e+04    -  3.01e-03 1.45e-12f 40
1462r 1.2474120e+08 2.27e+05 4.90e+03  -2.3 1.22e+04    -  4.64e-03 2.84e-15f 49
iter    objective    inf_pr   inf_du lg(mu)  ||d||  lg(rg) alpha_du alpha_pr  ls
1465r 1.2474120e+08 2.27e+05 4.88e+03  -2.3 2.38e+04    -  4.60e-03 8.87e-17f 54
1472r 1.2474120e+08 2.27e+05 4.85e+03  -2.3 1.43e+04    -  3.97e-03 8.87e-17f 54
1476r 1.2474120e+08 2.27e+05 4.82e+03  -2.3 1.45e+04    -  8.26e-03 8.88e-17f 54
1483r 1.2474120e+08 2.27e+05 4.79e+03  -2.3 1.44e+04    -  4.27e-03 5.56e-18f 58
1487r 1.2474120e+08 2.27e+05 4.76e+03  -2.3 1.97e+04    -  4.58e-03 1.74e-19f 63
1491r 1.2474120e+08 2.27e+05 4.73e+03  -2.3 2.37e+04    -  2.80e-03 1.74e-19f 63
1502r 1.2206730e+08 2.37e+05 1.45e+03  -2.3 1.73e+03    -  1.00e+00 2.33e-10f 33
1507r 1.2206730e+08 2.37e+05 1.45e+03  -2.3 1.73e+03    -  1.00e+00 3.64e-12f 39
1514r 1.2194905e+08 2.38e+05 7.16e+02  -3.4 1.08e+06    -  2.31e-03 7.74e-04f  1
1528r 1.2813700e+08 2.12e+05 1.55e+04  -2.8 2.71e+05    -  1.01e-03 1.13e-02f  1
iter    objective    inf_pr   inf_du lg(mu)  ||d||  lg(rg) alpha_du alpha_pr  ls
1536r 1.3063988e+08 1.99e+05 3.18e+04  -2.2 6.71e+04    -  1.21e-02 2.62e-13f 39
1541r 1.3063988e+08 1.99e+05 3.10e+04  -2.2 6.71e+04    -  9.15e-04 8.34e-15f 44
1548r 1.3063988e+08 1.99e+05 3.00e+04  -2.2 6.71e+04    -  9.50e-04 6.63e-17f 51
1553r 1.3063988e+08 1.99e+05 2.88e+04  -2.2 6.71e+04    -  4.95e-03 6.78e-17f 51
1560r 1.3063988e+08 1.99e+05 2.80e+04  -2.2 5.37e+04    -  5.04e-03 1.73e-17f 52
1564r 1.3063988e+08 1.99e+05 2.74e+04  -2.2 6.71e+04    -  6.16e-03 1.77e-17f 53
1569r 1.3063988e+08 1.99e+05 2.67e+04  -2.2 6.71e+04    -  9.08e-04 1.84e-17f 53
1576r 1.3063988e+08 1.99e+05 2.60e+04  -2.2 6.71e+04    -  9.19e-04 1.90e-17f 53
1581r 1.3063988e+08 1.99e+05 2.48e+04  -2.2 6.71e+04    -  1.18e-02 1.98e-17f 53
1588r 1.3063988e+08 1.99e+05 2.42e+04  -2.2 6.71e+04    -  1.15e-02 6.46e-19f 58
iter    objective    inf_pr   inf_du lg(mu)  ||d||  lg(rg) alpha_du alpha_pr  ls
1592r 1.3063988e+08 1.99e+05 2.35e+04  -2.2 6.71e+04    -  1.14e-02 3.38e-19f 59
1598r 1.2424129e+08 2.32e+05 2.51e+04  -2.2 5.71e+04    -  4.40e-02 4.00e-01w  1
1602r 1.3063988e+08 1.99e+05 2.26e+04  -2.2 6.71e+04    -  9.14e-04 3.73e-19f 59

